200
1000
699
699
696
694
693
692
691
690
689
688
682
681
679
679
673
673
671
664
662
661
655
652
649
646
640
638
618
617
602
590
587
586
586
584
582
568
567
563
560
558
553
548
539
539
536
536
532
532
529
526
526
522
521
517
516
514
513
510
507
505
502
498
495
493
491
485
482
477
475
474
465
456
454
453
450
442
441
440
439
437
437
434
424
422
419
415
407
404
401
399
395
395
393
391
386
384
382
381
368
354
353
348
344
343
343
343
336
336
328
328
324
324
321
319
319
304
302
301
300
296
295
284
281
280
279
275
275
271
267
260
257
253
248
245
243
239
238
238
237
233
226
225
222
222
218
217
216
216
212
211
206
204
201
197
189
188
187
186
181
176
173
167
165
163
158
153
146
146
142
135
127
126
124
119
115
115
114
107
105
104
96
96
94
94
79
61
55
54
44
44
33
31
28
28
18
15
15
12
11
9
